sym1.0
1.0
5.5032120815  0.0  0.0
0.0  5.5032120815  0.0
0.0  0.0  5.5032120815
P S Li 
1 4 3 
Car
0.52280515  3.70366173  3.26340476
2.14806589  3.19450731  4.31187307
4.44678444  2.6823003  3.94373226
0.81349826  3.2731609  1.33204144
0.18608408  0.16146633  3.46597229
5.33811572  0.65488224  5.33261251
3.26340476  0.47327624  2.6415418
2.49295507  1.26573878  1.04010708
