sym1.0
1.0
7.137658555  0.0  0.0
0.0  7.137658555  0.0
0.0  0.0  7.137658555
P S Li 
2 8 6 
Car
4.7179923  6.7165367  4.70371699
0.69949054  2.56955708  5.72440216
6.62823585  7.09762497  4.25013296
4.62980532  5.72339758  6.43746962
3.89800145  5.60579157  3.25669998
3.7159266  1.30167414  4.87056539
1.43828606  4.00960994  6.89932032
6.02930575  2.02975488  6.38796812
1.92241488  0.98740392  5.75977362
0.54561401  3.25145959  3.85054659
1.54887191  6.8021886  4.19694323
3.96853816  3.44748908  0.78514244
3.31187357  3.91143689  4.79650655
6.51668226  6.54523289  0.72804117
5.58164899  1.94144313  2.4624922
6.85215221  5.17480245  4.7179923
