sym1.0
1.0
6.9336127435  0.0  0.0
0.0  6.9336127435  0.0
0.0  0.0  6.9336127435
P S Li 
2 8 6 
Car
0.0  1.43525784  6.75333881
3.46680637  5.49835491  3.28653244
1.63299392  1.94144547  0.85756452
1.83381245  4.99216727  4.32437089
5.09980029  4.99216727  4.32437089
5.30061882  1.94144547  0.85756452
0.0  6.39495773  6.43135778
3.46680637  0.53865501  2.96455141
6.93361274  2.39679542  4.99964294
3.46680637  4.53681732  1.53283657
0.0  2.46143252  3.08545767
3.46680637  4.47218022  6.55226404
5.442886  3.29346605  3.75108449
4.95753311  3.64014669  0.28427812
1.97607963  3.64014669  0.28427812
1.49072674  3.29346605  3.75108449
