Good luck                               
   1.00000000000000     
    12.6102652054148709   -2.7712281764651370   -0.5261169785543216
    -2.9593514599521034    4.8823341196164973    1.3441743836761486
    -0.6824341345268768    1.6357769320295252    5.3639317686835710
   P    S    Li
     2     8     6
Direct
  0.2122578676353241  0.9759208601988512  0.8958324131178801
  0.7120766774574361  0.1279151503662146  0.3969277015435818
  0.1724421923592018  0.2758753057524765  0.5717284276383130
  0.3902047769823674  0.1000611858358423  0.7756569370771353
  0.0362110257888459  0.4452667462982665  0.0162153400010390
  0.2505301898352078  0.0736124493492532  0.2175616698303964
  0.7510341907516390  0.8250684302159818  0.7192675806329625
  0.5354404130925247  0.0084071981810633  0.5176510272496226
  0.6726336146306162  0.0321455554587471  0.0734413544946089
  0.8893085666448320  0.6577029496725937  0.2760734289657923
  0.5104414436985699  0.4254339425329364  0.0322788898597885
  0.4136557300958242  0.6927359338630502  0.2546451873777952
  0.2148699733505369  0.4769978723676087  0.8883405127525548
  0.9135233117240351  0.6580060356451400  0.7575902813494023
  0.0104895770197093  0.4396077132255844  0.5333705219394540
  0.7129614262844648  0.6371599686980760  0.3942618953331902
 
  0.00000000E+00  0.00000000E+00  0.00000000E+00
  0.00000000E+00  0.00000000E+00  0.00000000E+00
  0.00000000E+00  0.00000000E+00  0.00000000E+00
  0.00000000E+00  0.00000000E+00  0.00000000E+00
  0.00000000E+00  0.00000000E+00  0.00000000E+00
  0.00000000E+00  0.00000000E+00  0.00000000E+00
  0.00000000E+00  0.00000000E+00  0.00000000E+00
  0.00000000E+00  0.00000000E+00  0.00000000E+00
  0.00000000E+00  0.00000000E+00  0.00000000E+00
  0.00000000E+00  0.00000000E+00  0.00000000E+00
  0.00000000E+00  0.00000000E+00  0.00000000E+00
  0.00000000E+00  0.00000000E+00  0.00000000E+00
  0.00000000E+00  0.00000000E+00  0.00000000E+00
  0.00000000E+00  0.00000000E+00  0.00000000E+00
  0.00000000E+00  0.00000000E+00  0.00000000E+00
  0.00000000E+00  0.00000000E+00  0.00000000E+00
