sym1.0
1.0
12.610265205414871  -2.771228176465137  -0.5261169785543216
-2.9593514599521034  4.882334119616497  1.3441743836761486
-0.6824341345268768  1.6357769320295252  5.363931768683571
P S Li 
2 8 6 
Car
2.99784795  0.60867367  4.32499662
8.76486969  0.0360323  2.3618055
1.80259381  1.58265051  2.98071878
4.94085939  0.47714977  3.71103071
-0.70357172  3.5951788  5.82497161
3.70592196  -0.02310683  0.74184829
9.93413201  -1.02684935  3.65873231
6.81016004  0.14073601  2.94627087
8.76646242  -0.84817493  0.51710984
9.51654974  1.93298928  2.3340454
5.1357824  2.48990018  4.48289131
3.96900063  3.18303103  2.45352816
0.81849118  3.36508213  4.52492405
8.51112137  2.80375069  4.55254751
-0.66242949  3.19050062  3.26303509
6.42974257  1.43754486  1.34267883
