sym1.0
1.0
12.610265205414871  -2.771228176465137  -0.5261169785543216
-2.9593514599521034  4.882334119616497  1.3441743836761486
-0.6824341345268768  1.6357769320295252  5.363931768683571
P S Li 
2 8 6 
Car
2.8485229  0.76580689  4.78082874
8.73318281  0.52133347  2.29206452
1.58717086  1.77429328  3.52532387
4.77226634  0.71082262  4.09838163
-0.12200307  2.0939118  0.8479881
3.59385965  0.04746921  1.24287736
9.81232787  -0.48102968  3.70967695
6.75301985  0.69249617  2.76441018
8.81395566  -0.47139494  0.50525366
9.52189385  2.40078585  2.19290326
5.92196783  2.13213979  4.78466753
3.33605205  3.58649562  2.42399938
1.32004836  3.07552244  5.4064797
8.94324157  1.59120038  3.88839316
-1.39812763  3.3105037  3.59498261
5.66075584  2.1655768  2.43098607
