sym1.0
1.0
12.610265205414871  -2.771228176465137  -0.5261169785543216
-2.9593514599521034  4.882334119616497  1.3441743836761486
-0.6824341345268768  1.6357769320295252  5.363931768683571
P S Li 
2 8 6 
Car
-0.0715256  5.48197429  6.05241576
8.71169617  0.25576953  2.34407611
1.77458227  1.58380842  3.30237942
4.85768336  0.44206312  4.19406527
-0.16176777  1.96021468  0.81155825
3.51808957  -0.02658044  1.12136622
9.91563515  -0.79036695  3.62276306
6.75565024  0.29035961  2.932413
8.73774109  -0.59894147  0.48571183
9.40391543  2.17542326  2.34524733
5.40125557  2.472985  4.80636907
3.50297337  3.1739222  2.08743263
0.83549877  2.87365445  4.98652971
9.16745874  1.49479595  4.32131622
-1.11628207  2.90095394  3.67855951
5.98741243  1.99986182  2.09541214
