sym1.0
1.0
6.9336127435  0.0  0.0
0.0  6.9336127435  0.0
0.0  0.0  6.9336127435
P S Li 
2 8 6 
Car
0.0  5.45675323  6.52452959
3.46680637  1.47685951  3.05772322
1.63299392  4.96875547  0.63743143
1.83381245  1.96485728  4.1042378
5.09980029  1.96485728  4.1042378
5.30061882  4.96875547  0.63743143
0.0  4.46475588  4.78788196
3.46680637  2.46885686  1.32107559
6.93361274  0.49113336  6.16814807
3.46680637  6.44247939  2.7013417
0.0  1.04004191  3.69561559
3.46680637  5.89357083  0.22880922
0.0  3.2657316  1.78193848
3.46680637  3.66788114  5.24874485
0.0  3.64014669  6.6354674
3.46680637  3.29346605  3.16866102
